<?xml version = "1.0" standalone="yes"?>
<!-- This file has been generated by DOcplex version 2.23.222  -->
<CPLEXSolution version="1.0">
 <header
   problemName="CVRP"
   objectiveValue="15817.8"
  />
 <variables>
  <variable name="x_0_1" index="0" value="1.00000"/>
  <variable name="x_0_2" index="1" value="1.00000"/>
  <variable name="x_0_3" index="2" value="1.00000"/>
  <variable name="x_0_6" index="5" value="1.00000"/>
  <variable name="x_0_8" index="7" value="1.00000"/>
  <variable name="x_0_10" index="9" value="1.00000"/>
  <variable name="x_0_11" index="10" value="1.00000"/>
  <variable name="x_0_13" index="12" value="1.00000"/>
  <variable name="x_0_15" index="14" value="1.00000"/>
  <variable name="x_0_16" index="15" value="1.00000"/>
  <variable name="x_0_17" index="16" value="1.00000"/>
  <variable name="x_1_4" index="21" value="1.00000"/>
  <variable name="x_2_0" index="36" value="1.00000"/>
  <variable name="x_3_9" index="62" value="1.00000"/>
  <variable name="x_4_7" index="78" value="1.00000"/>
  <variable name="x_5_0" index="90" value="1.00000"/>
  <variable name="x_6_0" index="108" value="1.00000"/>
  <variable name="x_7_0" index="126" value="1.00000"/>
  <variable name="x_8_0" index="144" value="1.00000"/>
  <variable name="x_9_14" index="175" value="1.00000"/>
  <variable name="x_10_0" index="180" value="1.00000"/>
  <variable name="x_11_0" index="198" value="1.00000"/>
  <variable name="x_12_0" index="216" value="1.00000"/>
  <variable name="x_13_5" index="239" value="1.00000"/>
  <variable name="x_14_0" index="252" value="1.00000"/>
  <variable name="x_15_12" index="282" value="1.00000"/>
  <variable name="x_16_18" index="305" value="1.00000"/>
  <variable name="x_17_0" index="306" value="1.00000"/>
  <variable name="x_18_0" index="324" value="1.00000"/>
  <variable name="u_1" index="342" value="28.00000"/>
  <variable name="u_2" index="343" value="54.00000"/>
  <variable name="u_3" index="344" value="17.00000"/>
  <variable name="u_4" index="345" value="32.00000"/>
  <variable name="u_5" index="346" value="59.00000"/>
  <variable name="u_6" index="347" value="56.00000"/>
  <variable name="u_7" index="348" value="59.00000"/>
  <variable name="u_8" index="349" value="38.00000"/>
  <variable name="u_9" index="350" value="37.00000"/>
  <variable name="u_10" index="351" value="47.00000"/>
  <variable name="u_11" index="352" value="43.00000"/>
  <variable name="u_12" index="353" value="54.00000"/>
  <variable name="u_13" index="354" value="29.00000"/>
  <variable name="u_14" index="355" value="58.00000"/>
  <variable name="u_15" index="356" value="23.00000"/>
  <variable name="u_16" index="357" value="4.00000"/>
  <variable name="u_17" index="358" value="59.00000"/>
  <variable name="u_18" index="359" value="55.00000"/>
 </variables>
</CPLEXSolution>
